<instance format="XCSP3" type="CSP">
  <variables>
    <var id="X0"> 1..2 </var>
    <var id="Y0"> 1..2 </var>
    <var id="Z0"> 1..2 </var>
    <var id="X1"> 1..2 </var>
    <var id="Y1"> 1..2 </var>
    <var id="Z1"> 1..2 </var>
    <var id="X2"> 1..2 </var>
    <var id="Y2"> 1..3 </var>
    <var id="Z2"> 1..2 </var>
    <var id="X3"> 1..2 </var>
    <var id="Y3"> 1..2 </var>
    <var id="Z3"> 1..2 </var>
    <var id="X4"> 1..2 </var>
    <var id="Y4"> 1..2 </var>
    <var id="Z4"> 1..2 </var>
    <var id="X5"> 1..2 </var>
    <var id="Y5"> 1..2 </var>
    <var id="Z5"> 1..2 </var>
  </variables>
  <constraints>
    <block class="Variable comparison Variable operator Variable">
      <intension> eq(X0,dist(Y0,Z0)) </intension>
      <intension> ne(X1,add(Y1,Z1)) </intension>
      <intension> lt(X2,sub(Y2,Z2)) </intension>
      <intension> le(X3,mul(Y3,Z3)) </intension>
      <intension> gt(X4,div(Y4,Z4)) </intension>
      <intension> ge(X5,mod(Y5,Z5)) </intension>
    </block>
  </constraints>
</instance>
